p cnf 28 287
9 10 11 12 13 14 15 16 17 18 19 20 21 22 23 24 25 26 0
9 10 11 12 13 14 15 16 17 18 19 20 21 22 23 24 25 27 0
9 10 11 12 13 14 15 16 17 18 19 20 21 22 23 24 25 28 0
9 10 11 12 13 14 15 16 17 18 19 20 21 22 23 24 26 27 0
9 10 11 12 13 14 15 16 17 18 19 20 21 22 23 24 26 28 0
9 10 11 12 13 14 15 16 17 18 19 20 21 22 23 24 27 28 0
9 10 11 12 13 14 15 16 17 18 19 20 21 22 23 25 26 27 0
9 10 11 12 13 14 15 16 17 18 19 20 21 22 23 25 26 28 0
9 10 11 12 13 14 15 16 17 18 19 20 21 22 23 25 27 28 0
9 10 11 12 13 14 15 16 17 18 19 20 21 22 23 26 27 28 0
9 10 11 12 13 14 15 16 17 18 19 20 21 22 24 25 26 27 0
9 10 11 12 13 14 15 16 17 18 19 20 21 22 24 25 26 28 0
9 10 11 12 13 14 15 16 17 18 19 20 21 22 24 25 27 28 0
9 10 11 12 13 14 15 16 17 18 19 20 21 22 24 26 27 28 0
9 10 11 12 13 14 15 16 17 18 19 20 21 22 25 26 27 28 0
9 10 11 12 13 14 15 16 17 18 19 20 21 23 24 25 26 27 0
9 10 11 12 13 14 15 16 17 18 19 20 21 23 24 25 26 28 0
9 10 11 12 13 14 15 16 17 18 19 20 21 23 24 25 27 28 0
9 10 11 12 13 14 15 16 17 18 19 20 21 23 24 26 27 28 0
9 10 11 12 13 14 15 16 17 18 19 20 21 23 25 26 27 28 0
9 10 11 12 13 14 15 16 17 18 19 20 21 24 25 26 27 28 0
9 10 11 12 13 14 15 16 17 18 19 20 22 23 24 25 26 27 0
9 10 11 12 13 14 15 16 17 18 19 20 22 23 24 25 26 28 0
9 10 11 12 13 14 15 16 17 18 19 20 22 23 24 25 27 28 0
9 10 11 12 13 14 15 16 17 18 19 20 22 23 24 26 27 28 0
9 10 11 12 13 14 15 16 17 18 19 20 22 23 25 26 27 28 0
9 10 11 12 13 14 15 16 17 18 19 20 22 24 25 26 27 28 0
9 10 11 12 13 14 15 16 17 18 19 20 23 24 25 26 27 28 0
9 10 11 12 13 14 15 16 17 18 19 21 22 23 24 25 26 27 0
9 10 11 12 13 14 15 16 17 18 19 21 22 23 24 25 26 28 0
9 10 11 12 13 14 15 16 17 18 19 21 22 23 24 25 27 28 0
9 10 11 12 13 14 15 16 17 18 19 21 22 23 24 26 27 28 0
9 10 11 12 13 14 15 16 17 18 19 21 22 23 25 26 27 28 0
9 10 11 12 13 14 15 16 17 18 19 21 22 24 25 26 27 28 0
9 10 11 12 13 14 15 16 17 18 19 21 23 24 25 26 27 28 0
9 10 11 12 13 14 15 16 17 18 19 22 23 24 25 26 27 28 0
9 10 11 12 13 14 15 16 17 18 20 21 22 23 24 25 26 27 0
9 10 11 12 13 14 15 16 17 18 20 21 22 23 24 25 26 28 0
9 10 11 12 13 14 15 16 17 18 20 21 22 23 24 25 27 28 0
9 10 11 12 13 14 15 16 17 18 20 21 22 23 24 26 27 28 0
9 10 11 12 13 14 15 16 17 18 20 21 22 23 25 26 27 28 0
9 10 11 12 13 14 15 16 17 18 20 21 22 24 25 26 27 28 0
9 10 11 12 13 14 15 16 17 18 20 21 23 24 25 26 27 28 0
9 10 11 12 13 14 15 16 17 18 20 22 23 24 25 26 27 28 0
9 10 11 12 13 14 15 16 17 18 21 22 23 24 25 26 27 28 0
9 10 11 12 13 14 15 16 17 19 20 21 22 23 24 25 26 27 0
9 10 11 12 13 14 15 16 17 19 20 21 22 23 24 25 26 28 0
9 10 11 12 13 14 15 16 17 19 20 21 22 23 24 25 27 28 0
9 10 11 12 13 14 15 16 17 19 20 21 22 23 24 26 27 28 0
9 10 11 12 13 14 15 16 17 19 20 21 22 23 25 26 27 28 0
9 10 11 12 13 14 15 16 17 19 20 21 22 24 25 26 27 28 0
9 10 11 12 13 14 15 16 17 19 20 21 23 24 25 26 27 28 0
9 10 11 12 13 14 15 16 17 19 20 22 23 24 25 26 27 28 0
9 10 11 12 13 14 15 16 17 19 21 22 23 24 25 26 27 28 0
9 10 11 12 13 14 15 16 17 20 21 22 23 24 25 26 27 28 0
9 10 11 12 13 14 15 16 18 19 20 21 22 23 24 25 26 27 0
9 10 11 12 13 14 15 16 18 19 20 21 22 23 24 25 26 28 0
9 10 11 12 13 14 15 16 18 19 20 21 22 23 24 25 27 28 0
9 10 11 12 13 14 15 16 18 19 20 21 22 23 24 26 27 28 0
9 10 11 12 13 14 15 16 18 19 20 21 22 23 25 26 27 28 0
9 10 11 12 13 14 15 16 18 19 20 21 22 24 25 26 27 28 0
9 10 11 12 13 14 15 16 18 19 20 21 23 24 25 26 27 28 0
9 10 11 12 13 14 15 16 18 19 20 22 23 24 25 26 27 28 0
9 10 11 12 13 14 15 16 18 19 21 22 23 24 25 26 27 28 0
9 10 11 12 13 14 15 16 18 20 21 22 23 24 25 26 27 28 0
9 10 11 12 13 14 15 16 19 20 21 22 23 24 25 26 27 28 0
9 10 11 12 13 14 15 17 18 19 20 21 22 23 24 25 26 27 0
9 10 11 12 13 14 15 17 18 19 20 21 22 23 24 25 26 28 0
9 10 11 12 13 14 15 17 18 19 20 21 22 23 24 25 27 28 0
9 10 11 12 13 14 15 17 18 19 20 21 22 23 24 26 27 28 0
9 10 11 12 13 14 15 17 18 19 20 21 22 23 25 26 27 28 0
9 10 11 12 13 14 15 17 18 19 20 21 22 24 25 26 27 28 0
9 10 11 12 13 14 15 17 18 19 20 21 23 24 25 26 27 28 0
9 10 11 12 13 14 15 17 18 19 20 22 23 24 25 26 27 28 0
9 10 11 12 13 14 15 17 18 19 21 22 23 24 25 26 27 28 0
9 10 11 12 13 14 15 17 18 20 21 22 23 24 25 26 27 28 0
9 10 11 12 13 14 15 17 19 20 21 22 23 24 25 26 27 28 0
9 10 11 12 13 14 15 18 19 20 21 22 23 24 25 26 27 28 0
9 10 11 12 13 14 16 17 18 19 20 21 22 23 24 25 26 27 0
9 10 11 12 13 14 16 17 18 19 20 21 22 23 24 25 26 28 0
9 10 11 12 13 14 16 17 18 19 20 21 22 23 24 25 27 28 0
9 10 11 12 13 14 16 17 18 19 20 21 22 23 24 26 27 28 0
9 10 11 12 13 14 16 17 18 19 20 21 22 23 25 26 27 28 0
9 10 11 12 13 14 16 17 18 19 20 21 22 24 25 26 27 28 0
9 10 11 12 13 14 16 17 18 19 20 21 23 24 25 26 27 28 0
9 10 11 12 13 14 16 17 18 19 20 22 23 24 25 26 27 28 0
9 10 11 12 13 14 16 17 18 19 21 22 23 24 25 26 27 28 0
9 10 11 12 13 14 16 17 18 20 21 22 23 24 25 26 27 28 0
9 10 11 12 13 14 16 17 19 20 21 22 23 24 25 26 27 28 0
9 10 11 12 13 14 16 18 19 20 21 22 23 24 25 26 27 28 0
9 10 11 12 13 14 17 18 19 20 21 22 23 24 25 26 27 28 0
9 10 11 12 13 15 16 17 18 19 20 21 22 23 24 25 26 27 0
9 10 11 12 13 15 16 17 18 19 20 21 22 23 24 25 26 28 0
9 10 11 12 13 15 16 17 18 19 20 21 22 23 24 25 27 28 0
9 10 11 12 13 15 16 17 18 19 20 21 22 23 24 26 27 28 0
9 10 11 12 13 15 16 17 18 19 20 21 22 23 25 26 27 28 0
9 10 11 12 13 15 16 17 18 19 20 21 22 24 25 26 27 28 0
9 10 11 12 13 15 16 17 18 19 20 21 23 24 25 26 27 28 0
9 10 11 12 13 15 16 17 18 19 20 22 23 24 25 26 27 28 0
9 10 11 12 13 15 16 17 18 19 21 22 23 24 25 26 27 28 0
9 10 11 12 13 15 16 17 18 20 21 22 23 24 25 26 27 28 0
9 10 11 12 13 15 16 17 19 20 21 22 23 24 25 26 27 28 0
9 10 11 12 13 15 16 18 19 20 21 22 23 24 25 26 27 28 0
9 10 11 12 13 15 17 18 19 20 21 22 23 24 25 26 27 28 0
9 10 11 12 13 16 17 18 19 20 21 22 23 24 25 26 27 28 0
9 10 11 12 14 15 16 17 18 19 20 21 22 23 24 25 26 27 0
9 10 11 12 14 15 16 17 18 19 20 21 22 23 24 25 26 28 0
9 10 11 12 14 15 16 17 18 19 20 21 22 23 24 25 27 28 0
9 10 11 12 14 15 16 17 18 19 20 21 22 23 24 26 27 28 0
9 10 11 12 14 15 16 17 18 19 20 21 22 23 25 26 27 28 0
9 10 11 12 14 15 16 17 18 19 20 21 22 24 25 26 27 28 0
9 10 11 12 14 15 16 17 18 19 20 21 23 24 25 26 27 28 0
9 10 11 12 14 15 16 17 18 19 20 22 23 24 25 26 27 28 0
9 10 11 12 14 15 16 17 18 19 21 22 23 24 25 26 27 28 0
9 10 11 12 14 15 16 17 18 20 21 22 23 24 25 26 27 28 0
9 10 11 12 14 15 16 17 19 20 21 22 23 24 25 26 27 28 0
9 10 11 12 14 15 16 18 19 20 21 22 23 24 25 26 27 28 0
9 10 11 12 14 15 17 18 19 20 21 22 23 24 25 26 27 28 0
9 10 11 12 14 16 17 18 19 20 21 22 23 24 25 26 27 28 0
9 10 11 12 15 16 17 18 19 20 21 22 23 24 25 26 27 28 0
9 10 11 13 14 15 16 17 18 19 20 21 22 23 24 25 26 27 0
9 10 11 13 14 15 16 17 18 19 20 21 22 23 24 25 26 28 0
9 10 11 13 14 15 16 17 18 19 20 21 22 23 24 25 27 28 0
9 10 11 13 14 15 16 17 18 19 20 21 22 23 24 26 27 28 0
9 10 11 13 14 15 16 17 18 19 20 21 22 23 25 26 27 28 0
9 10 11 13 14 15 16 17 18 19 20 21 22 24 25 26 27 28 0
9 10 11 13 14 15 16 17 18 19 20 21 23 24 25 26 27 28 0
9 10 11 13 14 15 16 17 18 19 20 22 23 24 25 26 27 28 0
9 10 11 13 14 15 16 17 18 19 21 22 23 24 25 26 27 28 0
9 10 11 13 14 15 16 17 18 20 21 22 23 24 25 26 27 28 0
9 10 11 13 14 15 16 17 19 20 21 22 23 24 25 26 27 28 0
9 10 11 13 14 15 16 18 19 20 21 22 23 24 25 26 27 28 0
9 10 11 13 14 15 17 18 19 20 21 22 23 24 25 26 27 28 0
9 10 11 13 14 16 17 18 19 20 21 22 23 24 25 26 27 28 0
9 10 11 13 15 16 17 18 19 20 21 22 23 24 25 26 27 28 0
9 10 11 14 15 16 17 18 19 20 21 22 23 24 25 26 27 28 0
9 10 12 13 14 15 16 17 18 19 20 21 22 23 24 25 26 27 0
9 10 12 13 14 15 16 17 18 19 20 21 22 23 24 25 26 28 0
9 10 12 13 14 15 16 17 18 19 20 21 22 23 24 25 27 28 0
9 10 12 13 14 15 16 17 18 19 20 21 22 23 24 26 27 28 0
9 10 12 13 14 15 16 17 18 19 20 21 22 23 25 26 27 28 0
9 10 12 13 14 15 16 17 18 19 20 21 22 24 25 26 27 28 0
9 10 12 13 14 15 16 17 18 19 20 21 23 24 25 26 27 28 0
9 10 12 13 14 15 16 17 18 19 20 22 23 24 25 26 27 28 0
9 10 12 13 14 15 16 17 18 19 21 22 23 24 25 26 27 28 0
9 10 12 13 14 15 16 17 18 20 21 22 23 24 25 26 27 28 0
9 10 12 13 14 15 16 17 19 20 21 22 23 24 25 26 27 28 0
9 10 12 13 14 15 16 18 19 20 21 22 23 24 25 26 27 28 0
9 10 12 13 14 15 17 18 19 20 21 22 23 24 25 26 27 28 0
9 10 12 13 14 16 17 18 19 20 21 22 23 24 25 26 27 28 0
9 10 12 13 15 16 17 18 19 20 21 22 23 24 25 26 27 28 0
9 10 12 14 15 16 17 18 19 20 21 22 23 24 25 26 27 28 0
9 10 13 14 15 16 17 18 19 20 21 22 23 24 25 26 27 28 0
9 11 12 13 14 15 16 17 18 19 20 21 22 23 24 25 26 27 0
9 11 12 13 14 15 16 17 18 19 20 21 22 23 24 25 26 28 0
9 11 12 13 14 15 16 17 18 19 20 21 22 23 24 25 27 28 0
9 11 12 13 14 15 16 17 18 19 20 21 22 23 24 26 27 28 0
9 11 12 13 14 15 16 17 18 19 20 21 22 23 25 26 27 28 0
9 11 12 13 14 15 16 17 18 19 20 21 22 24 25 26 27 28 0
9 11 12 13 14 15 16 17 18 19 20 21 23 24 25 26 27 28 0
9 11 12 13 14 15 16 17 18 19 20 22 23 24 25 26 27 28 0
9 11 12 13 14 15 16 17 18 19 21 22 23 24 25 26 27 28 0
9 11 12 13 14 15 16 17 18 20 21 22 23 24 25 26 27 28 0
9 11 12 13 14 15 16 17 19 20 21 22 23 24 25 26 27 28 0
9 11 12 13 14 15 16 18 19 20 21 22 23 24 25 26 27 28 0
9 11 12 13 14 15 17 18 19 20 21 22 23 24 25 26 27 28 0
9 11 12 13 14 16 17 18 19 20 21 22 23 24 25 26 27 28 0
9 11 12 13 15 16 17 18 19 20 21 22 23 24 25 26 27 28 0
9 11 12 14 15 16 17 18 19 20 21 22 23 24 25 26 27 28 0
9 11 13 14 15 16 17 18 19 20 21 22 23 24 25 26 27 28 0
9 12 13 14 15 16 17 18 19 20 21 22 23 24 25 26 27 28 0
10 11 12 13 14 15 16 17 18 19 20 21 22 23 24 25 26 27 0
10 11 12 13 14 15 16 17 18 19 20 21 22 23 24 25 26 28 0
10 11 12 13 14 15 16 17 18 19 20 21 22 23 24 25 27 28 0
10 11 12 13 14 15 16 17 18 19 20 21 22 23 24 26 27 28 0
10 11 12 13 14 15 16 17 18 19 20 21 22 23 25 26 27 28 0
10 11 12 13 14 15 16 17 18 19 20 21 22 24 25 26 27 28 0
10 11 12 13 14 15 16 17 18 19 20 21 23 24 25 26 27 28 0
10 11 12 13 14 15 16 17 18 19 20 22 23 24 25 26 27 28 0
10 11 12 13 14 15 16 17 18 19 21 22 23 24 25 26 27 28 0
10 11 12 13 14 15 16 17 18 20 21 22 23 24 25 26 27 28 0
10 11 12 13 14 15 16 17 19 20 21 22 23 24 25 26 27 28 0
10 11 12 13 14 15 16 18 19 20 21 22 23 24 25 26 27 28 0
10 11 12 13 14 15 17 18 19 20 21 22 23 24 25 26 27 28 0
10 11 12 13 14 16 17 18 19 20 21 22 23 24 25 26 27 28 0
10 11 12 13 15 16 17 18 19 20 21 22 23 24 25 26 27 28 0
10 11 12 14 15 16 17 18 19 20 21 22 23 24 25 26 27 28 0
10 11 13 14 15 16 17 18 19 20 21 22 23 24 25 26 27 28 0
10 12 13 14 15 16 17 18 19 20 21 22 23 24 25 26 27 28 0
11 12 13 14 15 16 17 18 19 20 21 22 23 24 25 26 27 28 0
1 2 3 4 5 6 7 8 0
-9 -3 0
-9 -4 0
-9 -6 0
-9 -7 0
-9 -8 0
3 4 6 7 8 9 0
-10 -1 0
-10 -3 0
-10 -7 0
1 3 7 10 0
-11 -6 0
-11 -7 0
-11 -8 0
6 7 8 11 0
-12 -1 0
-12 -3 0
-12 -6 0
-12 -7 0
1 3 6 7 12 0
-13 -1 0
-13 -2 0
-13 -3 0
-13 -4 0
-13 -6 0
-13 -7 0
1 2 3 4 6 7 13 0
-14 -1 0
-14 -3 0
-14 -6 0
1 3 6 14 0
-15 -3 0
-15 -4 0
-15 -5 0
-15 -8 0
3 4 5 8 15 0
-16 -2 0
-16 -3 0
-16 -7 0
2 3 7 16 0
-17 -1 0
-17 -2 0
-17 -3 0
-17 -4 0
-17 -5 0
-17 -6 0
-17 -7 0
1 2 3 4 5 6 7 17 0
-18 -5 0
-18 -7 0
-18 -8 0
5 7 8 18 0
-19 -6 0
-19 -8 0
6 8 19 0
-20 -3 0
-20 -5 0
-20 -7 0
3 5 7 20 0
-21 -1 0
-21 -4 0
-21 -5 0
-21 -7 0
-21 -8 0
1 4 5 7 8 21 0
-22 -3 0
-22 -4 0
3 4 22 0
-23 -3 0
-23 -5 0
-23 -6 0
-23 -7 0
3 5 6 7 23 0
-24 -1 0
-24 -4 0
-24 -6 0
1 4 6 24 0
-25 -2 0
-25 -3 0
-25 -6 0
-25 -7 0
-25 -8 0
2 3 6 7 8 25 0
-26 -5 0
5 26 0
-27 -1 0
-27 -2 0
-27 -5 0
-27 -6 0
-27 -7 0
-27 -8 0
1 2 5 6 7 8 27 0
-28 -1 0
-28 -4 0
-28 -7 0
-28 -8 0
1 4 7 8 28 0
